\ LP format - for model browsing. Use MPS format to capture full model detail.
Maximize
  44.44444444444441 z1 + 22.22222222222226 z2 + 41 z3 + 12.88888888888889 z4
   + 25.77777777777776 z5 + 22 z6 + 19 z7 + 9.333333333333329 z8
   + 16.44444444444445 z9 + 31.55555555555554 z10 + 10.55555555555556 z11
   + 45.55555555555556 z12 + 20 z13 + 29.33333333333335 z14
   + 38.88888888888891 z15 + 37.44444444444443 z16 + 35.11111111111111 z17
   + 41 z18 + 48 z19 + 38.66666666666665 z20
Subject To
 constraint1: 47 z1 + 24 z2 + 41 z3 + 14 z4 + 26 z5 + 23 z6 + 19 z7 + 11 z8
   + 18 z9 + 33 z10 + 13 z11 + 46 z12 + 20 z13 + 32 z14 + 41 z15 + 39 z16
   + 36 z17 + 41 z18 + 48 z19 + 40 z20 <= 200
 constraints2_3_&_11: z3 - z11 = 0
 constraints2_6_&_7: z6 - z7 = 0
 constraints2_12_&_15: z12 - z15 = 0
 constraints3_1_|_3: z1 + z3 <= 1
 constraints3_3_|_12: z3 + z12 <= 1
 constraints3_3_|_13: z3 + z13 <= 1
 constraints3_5_|_17: z5 + z17 <= 1
 constraints3_6_|_13: z6 + z13 <= 1
 constraints3_6_|_16: z6 + z16 <= 1
 constraints3_6_|_18: z6 + z18 <= 1
 constraints3_10_|_19: z10 + z19 <= 1
 constraints3_12_|_14: z12 + z14 <= 1
 constraints3_12_|_17: z12 + z17 <= 1
 constraints3_12_|_18: z12 + z18 <= 1
 constraints3_12_|_19: z12 + z19 <= 1
 constraints3_12_|_20: z12 + z20 <= 1
 constraints3_16_|_18: z16 + z18 <= 1
 constraints3_18_|_19: z18 + z19 <= 1
 constraints3_19_|_20: z19 + z20 <= 1
Bounds
Binaries
 z1 z2 z3 z4 z5 z6 z7 z8 z9 z10 z11 z12 z13 z14 z15 z16 z17 z18 z19 z20
End
